64
20
0 20 22 24 26 27 31 33 35 37 39 42 43 48 50 54 56 57 58 60 63
1 21 22 23 24 26 30 31 32 36 39 42 43 44 48 50 53 56 57 60 62
2 22 24 26 27 28 31 32 35 37 38 39 42 43 47 48 50 52 53 56 57 60 61
3 24 27 31 32 35 38 41 42 44 47 50 55 56 57 60 61 62
4 23 24 26 31 32 33 38 41 42 46 50 51 54 55 57 60
5 23 24 26 30 31 32 35 37 40 41 44 45 47 48 49 50 51 53 56 57 58 59 62
6 23 26 27 31 32 35 37 38 40 41 42 44 48 49 50 51 59
7 23 26 28 30 31 35 36 40 48 52 56 57 60 61 63
8 23 24 26 27 29 31 32 36 39 41 42 47 48 51 52 56 58 60 61 63
9 20 23 25 26 32 33 35 36 37 39 42 44 45 47 51 54 55 56 59 60 61
10 31 33 35 40 41 44 45 48 50 58 62
11 22 24 26 29 30 32 33 34 35 36 40 44 48 49 50 52 54 56 59 63
12 22 26 28 34 35 37 38 39 40 41 43 45 47 48 49 50 52 57 59 63
13 30 38 42 43 47 51 52 56 57 59 60 61
14 27 31 32 33 35 41 47 48 50 54
15 24 27 28 37 38 61
16 24 32 36 39 48 49 50 58
17 24 33 36 39 41 53 57 60
18 29 44 52 55 62
19 56
